(set-logic QF_LIA)
(declare-fun x0 () Int)
(declare-fun x1 () Int)
(declare-fun x2 () Int)
(declare-fun x3 () Int)
(declare-fun x4 () Int)
(declare-fun x5 () Int)
(declare-fun x6 () Int)
(declare-fun x7 () Int)
(declare-fun x8 () Int)
(declare-fun x9 () Int)
(declare-fun A0 () Bool)
(declare-fun A1 () Bool)
(declare-fun A2 () Bool)
(declare-fun A3 () Bool)
(declare-fun A4 () Bool)
(declare-fun A5 () Bool)
(declare-fun A6 () Bool)
(declare-fun A7 () Bool)
(declare-fun A8 () Bool)
(declare-fun A9 () Bool)
(assert (let ((.def_0 (* 1 x9))) (let ((.def_1 (< .def_0 1))) (let ((.def_2 (not .def_1))) (let ((.def_3 (not A9))) (let ((.def_4 (and .def_3 .def_2))) (let ((.def_5 (not .def_4))) (let ((.def_6 (* (- 1) x4))) (let ((.def_7 (< .def_6 1))) (let ((.def_8 (not .def_7))) (let ((.def_9 (* 1 x3))) (let ((.def_10 (< .def_9 (- 1)))) (let ((.def_11 (not .def_10))) (let ((.def_12 (or .def_11 .def_8))) (let ((.def_13 (not .def_12))) (let ((.def_14 (or .def_13 .def_5))) (let ((.def_15 (not .def_14))) (let ((.def_16 (* 1 x0))) (let ((.def_17 (+ .def_16 .def_6))) (let ((.def_18 (< .def_17 1))) (let ((.def_19 (not A0))) (let ((.def_20 (and .def_19 .def_18))) (let ((.def_21 (not .def_20))) (let ((.def_22 (* 1 x1))) (let ((.def_23 (+ .def_22 .def_9))) (let ((.def_24 (< .def_23 (- 1)))) (let ((.def_25 (not A2))) (let ((.def_26 (= .def_25 .def_24))) (let ((.def_27 (and .def_26 .def_21))) (let ((.def_28 (not .def_27))) (let ((.def_29 (and .def_28 .def_15))) (let ((.def_30 (not .def_29))) (let ((.def_31 (not A6))) (let ((.def_32 (and .def_31 A8))) (let ((.def_33 (not .def_32))) (let ((.def_34 (not A3))) (let ((.def_35 (* 1 x7))) (let ((.def_36 (* (- 1) x6))) (let ((.def_37 (+ .def_36 .def_35))) (let ((.def_38 (< .def_37 (- 1)))) (let ((.def_39 (or .def_38 .def_34))) (let ((.def_40 (and .def_39 .def_33))) (let ((.def_41 (* (- 1) x9))) (let ((.def_42 (* 1 x2))) (let ((.def_43 (+ .def_42 .def_41))) (let ((.def_44 (< .def_43 1))) (let ((.def_45 (not .def_44))) (let ((.def_46 (and .def_45 .def_31))) (let ((.def_47 (not .def_46))) (let ((.def_48 (* (- 1) x8))) (let ((.def_49 (+ .def_36 .def_48))) (let ((.def_50 (< .def_49 (- 1)))) (let ((.def_51 (* (- 1) x7))) (let ((.def_52 (* 1 x5))) (let ((.def_53 (+ .def_52 .def_51))) (let ((.def_54 (< .def_53 1))) (let ((.def_55 (or .def_54 .def_50))) (let ((.def_56 (not .def_55))) (let ((.def_57 (or .def_56 .def_47))) (let ((.def_58 (not .def_57))) (let ((.def_59 (and .def_58 .def_40))) (let ((.def_60 (or .def_59 .def_30))) (let ((.def_61 (not .def_60))) (let ((.def_62 (+ .def_52 .def_22))) (let ((.def_63 (< .def_62 1))) (let ((.def_64 (not .def_63))) (let ((.def_65 (+ .def_0 .def_42))) (let ((.def_66 (< .def_65 1))) (let ((.def_67 (or .def_66 .def_64))) (let ((.def_68 (and A5 .def_34))) (let ((.def_69 (not .def_68))) (let ((.def_70 (and .def_69 .def_67))) (let ((.def_71 (not .def_70))) (let ((.def_72 (+ .def_36 .def_42))) (let ((.def_73 (< .def_72 1))) (let ((.def_74 (+ .def_36 .def_52))) (let ((.def_75 (< .def_74 1))) (let ((.def_76 (not .def_75))) (let ((.def_77 (or .def_76 .def_73))) (let ((.def_78 (not .def_77))) (let ((.def_79 (* (- 1) x1))) (let ((.def_80 (< .def_79 (- 1)))) (let ((.def_81 (not .def_80))) (let ((.def_82 (not A7))) (let ((.def_83 (or .def_82 .def_81))) (let ((.def_84 (not .def_83))) (let ((.def_85 (or .def_84 .def_78))) (let ((.def_86 (not .def_85))) (let ((.def_87 (and .def_86 .def_71))) (let ((.def_88 (< .def_41 (- 1)))) (let ((.def_89 (+ .def_9 .def_36))) (let ((.def_90 (< .def_89 1))) (let ((.def_91 (not .def_90))) (let ((.def_92 (and .def_91 .def_88))) (let ((.def_93 (+ .def_52 .def_48))) (let ((.def_94 (< .def_93 (- 1)))) (let ((.def_95 (not .def_94))) (let ((.def_96 (* (- 1) x5))) (let ((.def_97 (+ .def_96 .def_36))) (let ((.def_98 (< .def_97 (- 1)))) (let ((.def_99 (and .def_98 .def_95))) (let ((.def_100 (and .def_99 .def_92))) (let ((.def_101 (not .def_100))) (let ((.def_102 (* 1 x8))) (let ((.def_103 (< .def_102 (- 1)))) (let ((.def_104 (not .def_103))) (let ((.def_105 (or .def_7 .def_104))) (let ((.def_106 (* (- 1) x3))) (let ((.def_107 (+ .def_106 .def_52))) (let ((.def_108 (< .def_107 (- 1)))) (let ((.def_109 (* (- 1) x2))) (let ((.def_110 (+ .def_102 .def_109))) (let ((.def_111 (< .def_110 1))) (let ((.def_112 (or .def_111 .def_108))) (let ((.def_113 (not .def_112))) (let ((.def_114 (or .def_113 .def_105))) (let ((.def_115 (not .def_114))) (let ((.def_116 (and .def_115 .def_101))) (let ((.def_117 (or .def_116 .def_87))) (let ((.def_118 (or .def_117 .def_61))) (let ((.def_119 (< .def_106 (- 1)))) (let ((.def_120 (not .def_119))) (let ((.def_121 (or .def_120 A8))) (let ((.def_122 (and .def_19 .def_19))) (let ((.def_123 (not .def_122))) (let ((.def_124 (and .def_123 .def_121))) (let ((.def_125 (not A5))) (let ((.def_126 (* 1 x4))) (let ((.def_127 (+ .def_126 .def_0))) (let ((.def_128 (< .def_127 1))) (let ((.def_129 (not .def_128))) (let ((.def_130 (and .def_129 .def_125))) (let ((.def_131 (not .def_130))) (let ((.def_132 (and A9 A3))) (let ((.def_133 (not .def_132))) (let ((.def_134 (and .def_133 .def_131))) (let ((.def_135 (and .def_134 .def_124))) (let ((.def_136 (not .def_135))) (let ((.def_137 (or .def_7 A9))) (let ((.def_138 (or A0 .def_19))) (let ((.def_139 (not .def_138))) (let ((.def_140 (and .def_139 .def_137))) (let ((.def_141 (not .def_140))) (let ((.def_142 (+ .def_9 .def_48))) (let ((.def_143 (< .def_142 1))) (let ((.def_144 (or A0 .def_143))) (let ((.def_145 (not .def_144))) (let ((.def_146 (and .def_31 .def_82))) (let ((.def_147 (not .def_146))) (let ((.def_148 (or .def_147 .def_145))) (let ((.def_149 (and .def_148 .def_141))) (let ((.def_150 (and .def_149 .def_136))) (let ((.def_151 (not .def_150))) (let ((.def_152 (not A1))) (let ((.def_153 (or A6 .def_152))) (let ((.def_154 (not .def_153))) (let ((.def_155 (< .def_36 1))) (let ((.def_156 (not .def_155))) (let ((.def_157 (and .def_156 A7))) (let ((.def_158 (and .def_157 .def_154))) (let ((.def_159 (+ .def_79 .def_35))) (let ((.def_160 (< .def_159 (- 1)))) (let ((.def_161 (not .def_160))) (let ((.def_162 (or .def_161 .def_125))) (let ((.def_163 (+ .def_41 .def_6))) (let ((.def_164 (< .def_163 1))) (let ((.def_165 (< .def_96 (- 1)))) (let ((.def_166 (not .def_165))) (let ((.def_167 (and .def_166 .def_164))) (let ((.def_168 (not .def_167))) (let ((.def_169 (= .def_168 .def_162))) (let ((.def_170 (not .def_169))) (let ((.def_171 (and .def_170 .def_158))) (let ((.def_172 (not .def_171))) (let ((.def_173 (* 1 x6))) (let ((.def_174 (+ .def_35 .def_173))) (let ((.def_175 (< .def_174 (- 1)))) (let ((.def_176 (* (- 1) x0))) (let ((.def_177 (< .def_176 1))) (let ((.def_178 (not .def_177))) (let ((.def_179 (or .def_178 .def_175))) (let ((.def_180 (< .def_109 1))) (let ((.def_181 (not .def_180))) (let ((.def_182 (and .def_3 .def_181))) (let ((.def_183 (not .def_182))) (let ((.def_184 (or .def_183 .def_179))) (let ((.def_185 (or A4 A6))) (let ((.def_186 (not .def_185))) (let ((.def_187 (+ .def_48 .def_35))) (let ((.def_188 (< .def_187 (- 1)))) (let ((.def_189 (not .def_188))) (let ((.def_190 (+ .def_106 .def_36))) (let ((.def_191 (< .def_190 (- 1)))) (let ((.def_192 (not .def_191))) (let ((.def_193 (and .def_192 .def_189))) (let ((.def_194 (not .def_193))) (let ((.def_195 (or .def_194 .def_186))) (let ((.def_196 (or .def_195 .def_184))) (let ((.def_197 (= .def_196 .def_172))) (let ((.def_198 (not .def_197))) (let ((.def_199 (or .def_198 .def_151))) (let ((.def_200 (not .def_199))) (let ((.def_201 (or .def_200 .def_118))) (let ((.def_202 (not .def_201))) (let ((.def_203 (<= x9 1))) (let ((.def_204 (<= 0 x9))) (let ((.def_205 (<= x8 1))) (let ((.def_206 (<= 0 x8))) (let ((.def_207 (<= x7 1))) (let ((.def_208 (<= 0 x7))) (let ((.def_209 (<= x6 1))) (let ((.def_210 (<= 0 x6))) (let ((.def_211 (<= x5 1))) (let ((.def_212 (<= 0 x5))) (let ((.def_213 (<= x4 1))) (let ((.def_214 (<= 0 x4))) (let ((.def_215 (<= x3 1))) (let ((.def_216 (<= 0 x3))) (let ((.def_217 (<= x2 1))) (let ((.def_218 (<= 0 x2))) (let ((.def_219 (<= x1 1))) (let ((.def_220 (<= 0 x1))) (let ((.def_221 (<= x0 1))) (let ((.def_222 (<= 0 x0))) (let ((.def_223 (and .def_222 .def_221 .def_220 .def_219 .def_218 .def_217 .def_216 .def_215 .def_214 .def_213 .def_212 .def_211 .def_210 .def_209 .def_208 .def_207 .def_206 .def_205 .def_204 .def_203 .def_202))) .def_223)))))))))))))))))))))))))))))))))))))))))))))))))))))))))))))))))))))))))))))))))))))))))))))))))))))))))))))))))))))))))))))))))))))))))))))))))))))))))))))))))))))))))))))))))))))))))))))))))))))))))))))))))))))))))))))))))
(check-sat)
